objective value:                                    0
lambda[1,53]*                        7.99999999999999 	(obj:0)
lambda[0,45]*                        6.99999999999999 	(obj:0)
lambda[1,54]*                        2.00000000000001 	(obj:0)
lambda[0,60]*                                       2 	(obj:0)
lambda[0,61]*                                       1 	(obj:0)
